Set parameter TokenServer to value "hpc-licenses.hpcc.usc.edu"
Set parameter TimeLimit to value 3600
Gurobi Optimizer version 9.5.1 build v9.5.1rc2 (linux64)
Thread count: 20 physical cores, 20 logical processors, using up to 20 threads
Optimize a model with 6007 rows, 4529 columns and 24534 nonzeros
Model fingerprint: 0x445ad05d
Variable types: 4506 continuous, 23 integer (23 binary)
Coefficient statistics:
  Matrix range     [1e+00, 1e+00]
  Objective range  [1e-03, 1e+00]
  Bounds range     [1e+00, 1e+00]
  RHS range        [1e+00, 1e+02]
Found heuristic solution: objective 220.1159703
Presolve removed 1520 rows and 1515 columns
Presolve time: 0.05s
Presolved: 4487 rows, 3014 columns, 21975 nonzeros
Variable types: 2994 continuous, 20 integer (20 binary)

Root relaxation: objective 2.328981e+02, 2937 iterations, 0.11 seconds (0.15 work units)

    Nodes    |    Current Node    |     Objective Bounds      |     Work
 Expl Unexpl |  Obj  Depth IntInf | Incumbent    BestBd   Gap | It/Node Time

     0     0  232.89809    0    2  220.11597  232.89809  5.81%     -    0s
H    0     0                     231.8299620  232.89809  0.46%     -    0s
     0     0  232.85891    0    4  231.82996  232.85891  0.44%     -    0s
     0     0  232.85891    0    2  231.82996  232.85891  0.44%     -    0s
     0     0  232.85538    0    4  231.82996  232.85538  0.44%     -    1s
     0     0  232.61397    0    4  231.82996  232.61397  0.34%     -    1s
     0     0  232.61397    0    4  231.82996  232.61397  0.34%     -    1s
H    0     0                     232.0529277  232.61397  0.24%     -    1s

Cutting planes:
  Gomory: 3
  MIR: 149
  Flow cover: 1

Explored 1 nodes (5043 simplex iterations) in 1.77 seconds (0.64 work units)
Thread count was 20 (of 20 available processors)

Solution count 3: 232.053 231.83 220.116 

Optimal solution found (tolerance 1.00e-04)
Best objective 2.320529276685e+02, best bound 2.320529276685e+02, gap 0.0000%



#########node  1
V1.7
#########node  2
0.14473684210526316,0.8552631578947368
#########node  3
1.0,0.0


Total Solving Time 2.1226046085357666
obj value 232.05292766846085
Policy Regret train (Sum) 4.147362670960024
Best Treatment Found train (%) 70.19999999999999
treatment classification acc train (%) 50.6
Policy Regret test (Sum) 63.74597884426457
Best Treatment Found test (%) 73.06
treatment classification acc test (%) 50.339999999999996
